ISTART = 0
ISPIN = 2
LWAVE = .FALSE.
ALGO = A
NPAR = 16
KPAR = 8
ISMEAR = 0
SIGMA = 0.0001
NELM = 180
ISYM = -1
GGA = PE
LORBIT = 10
ENCUT = 350
EDIFF = 1e-06
MAGMOM = 0.00 -3.40 2*0.0 6*0.0
