CsHgAgCl                                
   1.00000000000000     
    -0.0000000000000000    5.1693238001574509    5.1693238001574509
     5.1693238001574509   -0.0000000000000000    5.1693238001574509
     5.1693238001574509    5.1693238001574509   -0.0000000000000000
   Hg   Ag   Cs   Cl
     1     1     2     6
Direct
  0.0000000000000000 -0.0000000000000000  0.0000000000000000
  0.5000000000000000  0.5000000000000000  0.5000000000000000
  0.2500000000000000  0.2500000000000000  0.2500000000000000
  0.7500000000000000  0.7500000000000000  0.7500000000000000
  0.7467650630365240  0.2532349369634762  0.2532349369634762
  0.2532349369634762  0.7467650630365240  0.7467650630365240
  0.2532349369634762  0.7467650630365240  0.2532349369634762
  0.7467650630365240  0.2532349369634762  0.7467650630365240
  0.2532349369634762  0.2532349369634762  0.7467650630365240
  0.7467650630365240  0.7467650630365240  0.2532349369634762
 
  0.00000000E+00  0.00000000E+00  0.00000000E+00
  0.00000000E+00  0.00000000E+00  0.00000000E+00
  0.00000000E+00  0.00000000E+00  0.00000000E+00
  0.00000000E+00  0.00000000E+00  0.00000000E+00
  0.00000000E+00  0.00000000E+00  0.00000000E+00
  0.00000000E+00  0.00000000E+00  0.00000000E+00
  0.00000000E+00  0.00000000E+00  0.00000000E+00
  0.00000000E+00  0.00000000E+00  0.00000000E+00
  0.00000000E+00  0.00000000E+00  0.00000000E+00
  0.00000000E+00  0.00000000E+00  0.00000000E+00
